10 5
5 1 1 21 1 0 53 1 4 95 1 3 55 2 2 34 4 34
5 1 0 21 1 3 52 1 4 16 1 2 26 1 1 71
5 1 3 39 1 4 98 2 1 42 3 42 1 2 31 1 0 12
5 2 1 77 4 77 1 0 55 1 4 79 1 2 66 1 3 77
5 1 0 83 2 3 34 2 34 1 2 64 1 1 19 1 4 37
5 1 1 54 1 2 43 2 4 79 3 79 1 0 92 1 3 62
5 2 3 69 2 69 1 4 77 1 1 87 1 2 87 1 0 93
5 1 2 38 1 0 60 1 1 41 1 3 24 1 4 83
5 1 3 17 2 1 49 0 49 1 4 25 1 0 44 2 2 98 0 98
5 1 4 77 2 3 79 0 79 2 2 43 1 43 1 1 75 1 0 96
